DIMENSION: 16
EDGE_WEIGHT_TYPE: EXPLICIT
EDGE_WEIGHT_FORMAT: FULL_MATRIX
EDGE_WEIGHT_SECTION:
32767 57 36 32767 100 79 32767 32767 78 32767 17 32767 32767 96 61 89 
57 32767 46 32767 32767 32767 88 32767 32767 77 16 2 14 58 69 32767 
36 46 32767 73 32767 32767 32767 32767 32767 99 88 74 32767 32767 32767 32767 
32767 32767 73 32767 52 67 53 12 32767 21 32767 32767 14 85 32767 95 
100 32767 32767 52 32767 32767 32767 32767 43 4 65 32767 32767 68 32767 32767 
79 32767 32767 67 32767 32767 76 32767 32767 26 32767 43 32767 32767 32767 32767 
32767 88 32767 53 32767 76 32767 32767 32767 57 32767 87 32767 42 32767 58 
32767 32767 32767 12 32767 32767 32767 32767 32767 32767 32767 32767 62 32767 32767 35 
78 32767 32767 32767 43 32767 32767 32767 32767 80 14 46 54 47 32767 32767 
32767 77 99 21 4 26 57 32767 80 32767 32767 17 57 89 32767 32767 
17 16 88 32767 65 32767 32767 32767 14 32767 32767 32767 97 61 32767 32767 
32767 2 74 32767 32767 43 87 32767 46 17 32767 32767 20 76 32767 32767 
32767 14 32767 14 32767 32767 32767 62 54 57 97 20 32767 32767 32767 90 
96 58 32767 85 68 32767 42 32767 47 89 61 76 32767 32767 32767 32767 
61 69 32767 32767 32767 32767 32767 32767 32767 32767 32767 32767 32767 32767 32767 10 
89 32767 32767 95 32767 32767 58 35 32767 32767 32767 32767 90 32767 10 32767 
EOF